c Optimised CNF encoding for 9x9 Sudoku
c Source: sudoku_9x9_20plus_01.txt
c Variables: 254  Clauses: 2080
p cnf 254 2080
1 2 3 4 0
5 6 7 8 9 0
10 11 12 13 0
14 15 16 17 18 0
19 20 21 22 0
23 24 25 26 27 0
28 29 30 31 0
32 33 34 35 36 37 38 0
39 40 41 42 43 0
44 45 46 0
47 48 49 50 51 0
52 53 54 55 0
56 57 58 59 0
60 61 62 63 64 0
65 66 67 68 69 0
70 71 72 73 0
74 75 76 0
77 78 79 0
80 81 82 83 0
84 85 86 0
87 88 89 90 91 0
92 93 94 95 96 97 0
98 99 100 101 0
102 103 104 105 0
106 107 108 109 0
110 111 112 113 0
114 115 116 117 0
118 119 120 121 122 0
123 124 125 126 127 0
128 129 130 131 132 0
133 134 135 0
136 137 138 139 0
140 141 142 0
143 144 145 146 0
147 148 149 150 151 0
152 153 154 155 0
156 157 158 159 160 0
161 162 163 0
164 165 166 167 0
168 169 170 171 0
172 173 174 175 176 0
177 178 179 180 181 0
182 183 184 0
185 186 187 188 189 0
190 191 192 0
193 194 195 196 0
197 198 199 0
200 201 202 203 204 0
205 206 207 208 0
209 210 211 212 0
213 214 215 216 217 0
218 219 0
220 221 222 223 0
224 225 226 227 228 0
229 230 231 232 0
233 234 235 236 0
237 238 239 240 241 242 0
243 244 245 246 247 0
248 249 250 0
251 252 253 254 0
-1 -2 0
-1 -3 0
-1 -4 0
-2 -3 0
-2 -4 0
-3 -4 0
-5 -6 0
-5 -7 0
-5 -8 0
-5 -9 0
-6 -7 0
-6 -8 0
-6 -9 0
-7 -8 0
-7 -9 0
-8 -9 0
-10 -11 0
-10 -12 0
-10 -13 0
-11 -12 0
-11 -13 0
-12 -13 0
-14 -15 0
-14 -16 0
-14 -17 0
-14 -18 0
-15 -16 0
-15 -17 0
-15 -18 0
-16 -17 0
-16 -18 0
-17 -18 0
-19 -20 0
-19 -21 0
-19 -22 0
-20 -21 0
-20 -22 0
-21 -22 0
-23 -24 0
-23 -25 0
-23 -26 0
-23 -27 0
-24 -25 0
-24 -26 0
-24 -27 0
-25 -26 0
-25 -27 0
-26 -27 0
-28 -29 0
-28 -30 0
-28 -31 0
-29 -30 0
-29 -31 0
-30 -31 0
-32 -33 0
-32 -34 0
-32 -35 0
-32 -36 0
-32 -37 0
-32 -38 0
-33 -34 0
-33 -35 0
-33 -36 0
-33 -37 0
-33 -38 0
-34 -35 0
-34 -36 0
-34 -37 0
-34 -38 0
-35 -36 0
-35 -37 0
-35 -38 0
-36 -37 0
-36 -38 0
-37 -38 0
-39 -40 0
-39 -41 0
-39 -42 0
-39 -43 0
-40 -41 0
-40 -42 0
-40 -43 0
-41 -42 0
-41 -43 0
-42 -43 0
-44 -45 0
-44 -46 0
-45 -46 0
-47 -48 0
-47 -49 0
-47 -50 0
-47 -51 0
-48 -49 0
-48 -50 0
-48 -51 0
-49 -50 0
-49 -51 0
-50 -51 0
-52 -53 0
-52 -54 0
-52 -55 0
-53 -54 0
-53 -55 0
-54 -55 0
-56 -57 0
-56 -58 0
-56 -59 0
-57 -58 0
-57 -59 0
-58 -59 0
-60 -61 0
-60 -62 0
-60 -63 0
-60 -64 0
-61 -62 0
-61 -63 0
-61 -64 0
-62 -63 0
-62 -64 0
-63 -64 0
-65 -66 0
-65 -67 0
-65 -68 0
-65 -69 0
-66 -67 0
-66 -68 0
-66 -69 0
-67 -68 0
-67 -69 0
-68 -69 0
-70 -71 0
-70 -72 0
-70 -73 0
-71 -72 0
-71 -73 0
-72 -73 0
-74 -75 0
-74 -76 0
-75 -76 0
-77 -78 0
-77 -79 0
-78 -79 0
-80 -81 0
-80 -82 0
-80 -83 0
-81 -82 0
-81 -83 0
-82 -83 0
-84 -85 0
-84 -86 0
-85 -86 0
-87 -88 0
-87 -89 0
-87 -90 0
-87 -91 0
-88 -89 0
-88 -90 0
-88 -91 0
-89 -90 0
-89 -91 0
-90 -91 0
-92 -93 0
-92 -94 0
-92 -95 0
-92 -96 0
-92 -97 0
-93 -94 0
-93 -95 0
-93 -96 0
-93 -97 0
-94 -95 0
-94 -96 0
-94 -97 0
-95 -96 0
-95 -97 0
-96 -97 0
-98 -99 0
-98 -100 0
-98 -101 0
-99 -100 0
-99 -101 0
-100 -101 0
-102 -103 0
-102 -104 0
-102 -105 0
-103 -104 0
-103 -105 0
-104 -105 0
-106 -107 0
-106 -108 0
-106 -109 0
-107 -108 0
-107 -109 0
-108 -109 0
-110 -111 0
-110 -112 0
-110 -113 0
-111 -112 0
-111 -113 0
-112 -113 0
-114 -115 0
-114 -116 0
-114 -117 0
-115 -116 0
-115 -117 0
-116 -117 0
-118 -119 0
-118 -120 0
-118 -121 0
-118 -122 0
-119 -120 0
-119 -121 0
-119 -122 0
-120 -121 0
-120 -122 0
-121 -122 0
-123 -124 0
-123 -125 0
-123 -126 0
-123 -127 0
-124 -125 0
-124 -126 0
-124 -127 0
-125 -126 0
-125 -127 0
-126 -127 0
-128 -129 0
-128 -130 0
-128 -131 0
-128 -132 0
-129 -130 0
-129 -131 0
-129 -132 0
-130 -131 0
-130 -132 0
-131 -132 0
-133 -134 0
-133 -135 0
-134 -135 0
-136 -137 0
-136 -138 0
-136 -139 0
-137 -138 0
-137 -139 0
-138 -139 0
-140 -141 0
-140 -142 0
-141 -142 0
-143 -144 0
-143 -145 0
-143 -146 0
-144 -145 0
-144 -146 0
-145 -146 0
-147 -148 0
-147 -149 0
-147 -150 0
-147 -151 0
-148 -149 0
-148 -150 0
-148 -151 0
-149 -150 0
-149 -151 0
-150 -151 0
-152 -153 0
-152 -154 0
-152 -155 0
-153 -154 0
-153 -155 0
-154 -155 0
-156 -157 0
-156 -158 0
-156 -159 0
-156 -160 0
-157 -158 0
-157 -159 0
-157 -160 0
-158 -159 0
-158 -160 0
-159 -160 0
-161 -162 0
-161 -163 0
-162 -163 0
-164 -165 0
-164 -166 0
-164 -167 0
-165 -166 0
-165 -167 0
-166 -167 0
-168 -169 0
-168 -170 0
-168 -171 0
-169 -170 0
-169 -171 0
-170 -171 0
-172 -173 0
-172 -174 0
-172 -175 0
-172 -176 0
-173 -174 0
-173 -175 0
-173 -176 0
-174 -175 0
-174 -176 0
-175 -176 0
-177 -178 0
-177 -179 0
-177 -180 0
-177 -181 0
-178 -179 0
-178 -180 0
-178 -181 0
-179 -180 0
-179 -181 0
-180 -181 0
-182 -183 0
-182 -184 0
-183 -184 0
-185 -186 0
-185 -187 0
-185 -188 0
-185 -189 0
-186 -187 0
-186 -188 0
-186 -189 0
-187 -188 0
-187 -189 0
-188 -189 0
-190 -191 0
-190 -192 0
-191 -192 0
-193 -194 0
-193 -195 0
-193 -196 0
-194 -195 0
-194 -196 0
-195 -196 0
-197 -198 0
-197 -199 0
-198 -199 0
-200 -201 0
-200 -202 0
-200 -203 0
-200 -204 0
-201 -202 0
-201 -203 0
-201 -204 0
-202 -203 0
-202 -204 0
-203 -204 0
-205 -206 0
-205 -207 0
-205 -208 0
-206 -207 0
-206 -208 0
-207 -208 0
-209 -210 0
-209 -211 0
-209 -212 0
-210 -211 0
-210 -212 0
-211 -212 0
-213 -214 0
-213 -215 0
-213 -216 0
-213 -217 0
-214 -215 0
-214 -216 0
-214 -217 0
-215 -216 0
-215 -217 0
-216 -217 0
-218 -219 0
-220 -221 0
-220 -222 0
-220 -223 0
-221 -222 0
-221 -223 0
-222 -223 0
-224 -225 0
-224 -226 0
-224 -227 0
-224 -228 0
-225 -226 0
-225 -227 0
-225 -228 0
-226 -227 0
-226 -228 0
-227 -228 0
-229 -230 0
-229 -231 0
-229 -232 0
-230 -231 0
-230 -232 0
-231 -232 0
-233 -234 0
-233 -235 0
-233 -236 0
-234 -235 0
-234 -236 0
-235 -236 0
-237 -238 0
-237 -239 0
-237 -240 0
-237 -241 0
-237 -242 0
-238 -239 0
-238 -240 0
-238 -241 0
-238 -242 0
-239 -240 0
-239 -241 0
-239 -242 0
-240 -241 0
-240 -242 0
-241 -242 0
-243 -244 0
-243 -245 0
-243 -246 0
-243 -247 0
-244 -245 0
-244 -246 0
-244 -247 0
-245 -246 0
-245 -247 0
-246 -247 0
-248 -249 0
-248 -250 0
-249 -250 0
-251 -252 0
-251 -253 0
-251 -254 0
-252 -253 0
-252 -254 0
-253 -254 0
1 14 19 23 32 0
2 5 10 15 20 0
11 16 21 24 33 0
3 6 12 22 28 34 0
7 17 25 29 35 0
4 8 26 36 0
13 18 30 37 0
9 27 31 38 0
39 44 47 52 56 65 0
40 45 48 53 0
41 46 54 60 66 0
42 49 57 61 67 0
50 62 68 0
51 55 58 63 0
43 59 64 69 0
70 80 87 0
77 81 88 0
71 74 78 82 84 89 0
72 75 85 90 0
73 76 91 0
79 83 86 0
92 110 118 0
93 98 102 106 114 119 0
94 103 107 0
95 99 115 120 0
96 100 108 111 121 0
104 109 112 116 0
97 101 105 113 117 122 0
123 128 143 0
124 129 133 136 140 144 0
125 130 137 0
126 131 134 145 0
132 138 141 0
127 135 139 142 146 0
147 152 156 161 164 172 0
148 153 157 173 0
168 174 0
149 154 158 162 165 169 175 0
150 159 0
155 163 166 170 0
151 160 167 171 176 0
177 182 185 190 193 0
178 183 186 191 194 197 0
179 184 187 195 0
180 198 0
181 188 192 0
189 196 199 0
200 205 209 213 220 0
201 206 210 214 218 221 0
202 207 215 0
203 208 211 216 0
204 212 222 0
217 219 223 0
237 243 0
224 229 233 238 244 248 251 0
225 234 239 245 252 0
226 230 249 253 0
227 231 240 246 0
228 232 235 241 250 254 0
236 242 247 0
-1 -14 0
-1 -19 0
-1 -23 0
-1 -32 0
-14 -19 0
-14 -23 0
-14 -32 0
-19 -23 0
-19 -32 0
-23 -32 0
-2 -5 0
-2 -10 0
-2 -15 0
-2 -20 0
-5 -10 0
-5 -15 0
-5 -20 0
-10 -15 0
-10 -20 0
-15 -20 0
-11 -16 0
-11 -21 0
-11 -24 0
-11 -33 0
-16 -21 0
-16 -24 0
-16 -33 0
-21 -24 0
-21 -33 0
-24 -33 0
-3 -6 0
-3 -12 0
-3 -22 0
-3 -28 0
-3 -34 0
-6 -12 0
-6 -22 0
-6 -28 0
-6 -34 0
-12 -22 0
-12 -28 0
-12 -34 0
-22 -28 0
-22 -34 0
-28 -34 0
-7 -17 0
-7 -25 0
-7 -29 0
-7 -35 0
-17 -25 0
-17 -29 0
-17 -35 0
-25 -29 0
-25 -35 0
-29 -35 0
-4 -8 0
-4 -26 0
-4 -36 0
-8 -26 0
-8 -36 0
-26 -36 0
-13 -18 0
-13 -30 0
-13 -37 0
-18 -30 0
-18 -37 0
-30 -37 0
-9 -27 0
-9 -31 0
-9 -38 0
-27 -31 0
-27 -38 0
-31 -38 0
-39 -44 0
-39 -47 0
-39 -52 0
-39 -56 0
-39 -65 0
-44 -47 0
-44 -52 0
-44 -56 0
-44 -65 0
-47 -52 0
-47 -56 0
-47 -65 0
-52 -56 0
-52 -65 0
-56 -65 0
-40 -45 0
-40 -48 0
-40 -53 0
-45 -48 0
-45 -53 0
-48 -53 0
-41 -46 0
-41 -54 0
-41 -60 0
-41 -66 0
-46 -54 0
-46 -60 0
-46 -66 0
-54 -60 0
-54 -66 0
-60 -66 0
-42 -49 0
-42 -57 0
-42 -61 0
-42 -67 0
-49 -57 0
-49 -61 0
-49 -67 0
-57 -61 0
-57 -67 0
-61 -67 0
-50 -62 0
-50 -68 0
-62 -68 0
-51 -55 0
-51 -58 0
-51 -63 0
-55 -58 0
-55 -63 0
-58 -63 0
-43 -59 0
-43 -64 0
-43 -69 0
-59 -64 0
-59 -69 0
-64 -69 0
-70 -80 0
-70 -87 0
-80 -87 0
-77 -81 0
-77 -88 0
-81 -88 0
-71 -74 0
-71 -78 0
-71 -82 0
-71 -84 0
-71 -89 0
-74 -78 0
-74 -82 0
-74 -84 0
-74 -89 0
-78 -82 0
-78 -84 0
-78 -89 0
-82 -84 0
-82 -89 0
-84 -89 0
-72 -75 0
-72 -85 0
-72 -90 0
-75 -85 0
-75 -90 0
-85 -90 0
-73 -76 0
-73 -91 0
-76 -91 0
-79 -83 0
-79 -86 0
-83 -86 0
-92 -110 0
-92 -118 0
-110 -118 0
-93 -98 0
-93 -102 0
-93 -106 0
-93 -114 0
-93 -119 0
-98 -102 0
-98 -106 0
-98 -114 0
-98 -119 0
-102 -106 0
-102 -114 0
-102 -119 0
-106 -114 0
-106 -119 0
-114 -119 0
-94 -103 0
-94 -107 0
-103 -107 0
-95 -99 0
-95 -115 0
-95 -120 0
-99 -115 0
-99 -120 0
-115 -120 0
-96 -100 0
-96 -108 0
-96 -111 0
-96 -121 0
-100 -108 0
-100 -111 0
-100 -121 0
-108 -111 0
-108 -121 0
-111 -121 0
-104 -109 0
-104 -112 0
-104 -116 0
-109 -112 0
-109 -116 0
-112 -116 0
-97 -101 0
-97 -105 0
-97 -113 0
-97 -117 0
-97 -122 0
-101 -105 0
-101 -113 0
-101 -117 0
-101 -122 0
-105 -113 0
-105 -117 0
-105 -122 0
-113 -117 0
-113 -122 0
-117 -122 0
-123 -128 0
-123 -143 0
-128 -143 0
-124 -129 0
-124 -133 0
-124 -136 0
-124 -140 0
-124 -144 0
-129 -133 0
-129 -136 0
-129 -140 0
-129 -144 0
-133 -136 0
-133 -140 0
-133 -144 0
-136 -140 0
-136 -144 0
-140 -144 0
-125 -130 0
-125 -137 0
-130 -137 0
-126 -131 0
-126 -134 0
-126 -145 0
-131 -134 0
-131 -145 0
-134 -145 0
-132 -138 0
-132 -141 0
-138 -141 0
-127 -135 0
-127 -139 0
-127 -142 0
-127 -146 0
-135 -139 0
-135 -142 0
-135 -146 0
-139 -142 0
-139 -146 0
-142 -146 0
-147 -152 0
-147 -156 0
-147 -161 0
-147 -164 0
-147 -172 0
-152 -156 0
-152 -161 0
-152 -164 0
-152 -172 0
-156 -161 0
-156 -164 0
-156 -172 0
-161 -164 0
-161 -172 0
-164 -172 0
-148 -153 0
-148 -157 0
-148 -173 0
-153 -157 0
-153 -173 0
-157 -173 0
-168 -174 0
-149 -154 0
-149 -158 0
-149 -162 0
-149 -165 0
-149 -169 0
-149 -175 0
-154 -158 0
-154 -162 0
-154 -165 0
-154 -169 0
-154 -175 0
-158 -162 0
-158 -165 0
-158 -169 0
-158 -175 0
-162 -165 0
-162 -169 0
-162 -175 0
-165 -169 0
-165 -175 0
-169 -175 0
-150 -159 0
-155 -163 0
-155 -166 0
-155 -170 0
-163 -166 0
-163 -170 0
-166 -170 0
-151 -160 0
-151 -167 0
-151 -171 0
-151 -176 0
-160 -167 0
-160 -171 0
-160 -176 0
-167 -171 0
-167 -176 0
-171 -176 0
-177 -182 0
-177 -185 0
-177 -190 0
-177 -193 0
-182 -185 0
-182 -190 0
-182 -193 0
-185 -190 0
-185 -193 0
-190 -193 0
-178 -183 0
-178 -186 0
-178 -191 0
-178 -194 0
-178 -197 0
-183 -186 0
-183 -191 0
-183 -194 0
-183 -197 0
-186 -191 0
-186 -194 0
-186 -197 0
-191 -194 0
-191 -197 0
-194 -197 0
-179 -184 0
-179 -187 0
-179 -195 0
-184 -187 0
-184 -195 0
-187 -195 0
-180 -198 0
-181 -188 0
-181 -192 0
-188 -192 0
-189 -196 0
-189 -199 0
-196 -199 0
-200 -205 0
-200 -209 0
-200 -213 0
-200 -220 0
-205 -209 0
-205 -213 0
-205 -220 0
-209 -213 0
-209 -220 0
-213 -220 0
-201 -206 0
-201 -210 0
-201 -214 0
-201 -218 0
-201 -221 0
-206 -210 0
-206 -214 0
-206 -218 0
-206 -221 0
-210 -214 0
-210 -218 0
-210 -221 0
-214 -218 0
-214 -221 0
-218 -221 0
-202 -207 0
-202 -215 0
-207 -215 0
-203 -208 0
-203 -211 0
-203 -216 0
-208 -211 0
-208 -216 0
-211 -216 0
-204 -212 0
-204 -222 0
-212 -222 0
-217 -219 0
-217 -223 0
-219 -223 0
-237 -243 0
-224 -229 0
-224 -233 0
-224 -238 0
-224 -244 0
-224 -248 0
-224 -251 0
-229 -233 0
-229 -238 0
-229 -244 0
-229 -248 0
-229 -251 0
-233 -238 0
-233 -244 0
-233 -248 0
-233 -251 0
-238 -244 0
-238 -248 0
-238 -251 0
-244 -248 0
-244 -251 0
-248 -251 0
-225 -234 0
-225 -239 0
-225 -245 0
-225 -252 0
-234 -239 0
-234 -245 0
-234 -252 0
-239 -245 0
-239 -252 0
-245 -252 0
-226 -230 0
-226 -249 0
-226 -253 0
-230 -249 0
-230 -253 0
-249 -253 0
-227 -231 0
-227 -240 0
-227 -246 0
-231 -240 0
-231 -246 0
-240 -246 0
-228 -232 0
-228 -235 0
-228 -241 0
-228 -250 0
-228 -254 0
-232 -235 0
-232 -241 0
-232 -250 0
-232 -254 0
-235 -241 0
-235 -250 0
-235 -254 0
-241 -250 0
-241 -254 0
-250 -254 0
-236 -242 0
-236 -247 0
-242 -247 0
39 70 92 123 0
40 93 124 147 177 200 224 0
94 125 178 201 225 0
41 71 95 148 179 202 0
42 72 180 226 0
73 96 126 149 203 227 0
150 181 204 228 0
43 97 127 151 0
1 44 128 0
2 45 129 152 182 205 0
130 183 206 0
3 46 153 184 207 0
4 131 154 208 0
132 155 0
5 98 133 156 229 0
6 74 99 157 0
7 75 230 0
8 76 100 134 158 231 0
159 232 0
9 101 135 160 0
10 102 136 185 233 0
11 77 103 137 186 234 0
12 78 187 0
13 188 235 0
79 104 138 236 0
105 139 189 0
14 47 237 0
15 48 106 161 190 209 238 0
16 107 191 210 239 0
17 49 0
108 162 211 240 0
18 50 192 212 241 0
51 109 163 242 0
19 52 80 243 0
20 53 164 193 213 244 0
21 81 194 214 245 0
22 54 82 195 215 0
165 216 246 0
55 83 166 247 0
167 196 217 0
23 56 110 0
24 197 218 0
25 57 168 198 0
26 111 169 0
58 112 170 0
27 59 113 171 199 219 0
114 140 248 0
28 60 84 115 0
29 61 85 249 0
30 62 250 0
63 86 116 141 0
31 64 117 142 0
32 65 87 118 143 0
119 144 172 220 251 0
33 88 221 252 0
34 66 89 120 173 0
35 67 90 174 253 0
36 91 121 145 175 0
37 68 222 254 0
38 69 122 146 176 223 0
-39 -70 0
-39 -92 0
-39 -123 0
-70 -92 0
-70 -123 0
-92 -123 0
-40 -93 0
-40 -124 0
-40 -147 0
-40 -177 0
-40 -200 0
-40 -224 0
-93 -124 0
-93 -147 0
-93 -177 0
-93 -200 0
-93 -224 0
-124 -147 0
-124 -177 0
-124 -200 0
-124 -224 0
-147 -177 0
-147 -200 0
-147 -224 0
-177 -200 0
-177 -224 0
-200 -224 0
-94 -125 0
-94 -178 0
-94 -201 0
-94 -225 0
-125 -178 0
-125 -201 0
-125 -225 0
-178 -201 0
-178 -225 0
-201 -225 0
-41 -71 0
-41 -95 0
-41 -148 0
-41 -179 0
-41 -202 0
-71 -95 0
-71 -148 0
-71 -179 0
-71 -202 0
-95 -148 0
-95 -179 0
-95 -202 0
-148 -179 0
-148 -202 0
-179 -202 0
-42 -72 0
-42 -180 0
-42 -226 0
-72 -180 0
-72 -226 0
-180 -226 0
-73 -96 0
-73 -126 0
-73 -149 0
-73 -203 0
-73 -227 0
-96 -126 0
-96 -149 0
-96 -203 0
-96 -227 0
-126 -149 0
-126 -203 0
-126 -227 0
-149 -203 0
-149 -227 0
-203 -227 0
-150 -181 0
-150 -204 0
-150 -228 0
-181 -204 0
-181 -228 0
-204 -228 0
-43 -97 0
-43 -127 0
-43 -151 0
-97 -127 0
-97 -151 0
-127 -151 0
-1 -44 0
-1 -128 0
-44 -128 0
-2 -45 0
-2 -129 0
-2 -152 0
-2 -182 0
-2 -205 0
-45 -129 0
-45 -152 0
-45 -182 0
-45 -205 0
-129 -152 0
-129 -182 0
-129 -205 0
-152 -182 0
-152 -205 0
-182 -205 0
-130 -183 0
-130 -206 0
-183 -206 0
-3 -46 0
-3 -153 0
-3 -184 0
-3 -207 0
-46 -153 0
-46 -184 0
-46 -207 0
-153 -184 0
-153 -207 0
-184 -207 0
-4 -131 0
-4 -154 0
-4 -208 0
-131 -154 0
-131 -208 0
-154 -208 0
-132 -155 0
-5 -98 0
-5 -133 0
-5 -156 0
-5 -229 0
-98 -133 0
-98 -156 0
-98 -229 0
-133 -156 0
-133 -229 0
-156 -229 0
-6 -74 0
-6 -99 0
-6 -157 0
-74 -99 0
-74 -157 0
-99 -157 0
-7 -75 0
-7 -230 0
-75 -230 0
-8 -76 0
-8 -100 0
-8 -134 0
-8 -158 0
-8 -231 0
-76 -100 0
-76 -134 0
-76 -158 0
-76 -231 0
-100 -134 0
-100 -158 0
-100 -231 0
-134 -158 0
-134 -231 0
-158 -231 0
-159 -232 0
-9 -101 0
-9 -135 0
-9 -160 0
-101 -135 0
-101 -160 0
-135 -160 0
-10 -102 0
-10 -136 0
-10 -185 0
-10 -233 0
-102 -136 0
-102 -185 0
-102 -233 0
-136 -185 0
-136 -233 0
-185 -233 0
-11 -77 0
-11 -103 0
-11 -137 0
-11 -186 0
-11 -234 0
-77 -103 0
-77 -137 0
-77 -186 0
-77 -234 0
-103 -137 0
-103 -186 0
-103 -234 0
-137 -186 0
-137 -234 0
-186 -234 0
-12 -78 0
-12 -187 0
-78 -187 0
-13 -188 0
-13 -235 0
-188 -235 0
-79 -104 0
-79 -138 0
-79 -236 0
-104 -138 0
-104 -236 0
-138 -236 0
-105 -139 0
-105 -189 0
-139 -189 0
-14 -47 0
-14 -237 0
-47 -237 0
-15 -48 0
-15 -106 0
-15 -161 0
-15 -190 0
-15 -209 0
-15 -238 0
-48 -106 0
-48 -161 0
-48 -190 0
-48 -209 0
-48 -238 0
-106 -161 0
-106 -190 0
-106 -209 0
-106 -238 0
-161 -190 0
-161 -209 0
-161 -238 0
-190 -209 0
-190 -238 0
-209 -238 0
-16 -107 0
-16 -191 0
-16 -210 0
-16 -239 0
-107 -191 0
-107 -210 0
-107 -239 0
-191 -210 0
-191 -239 0
-210 -239 0
-17 -49 0
-108 -162 0
-108 -211 0
-108 -240 0
-162 -211 0
-162 -240 0
-211 -240 0
-18 -50 0
-18 -192 0
-18 -212 0
-18 -241 0
-50 -192 0
-50 -212 0
-50 -241 0
-192 -212 0
-192 -241 0
-212 -241 0
-51 -109 0
-51 -163 0
-51 -242 0
-109 -163 0
-109 -242 0
-163 -242 0
-19 -52 0
-19 -80 0
-19 -243 0
-52 -80 0
-52 -243 0
-80 -243 0
-20 -53 0
-20 -164 0
-20 -193 0
-20 -213 0
-20 -244 0
-53 -164 0
-53 -193 0
-53 -213 0
-53 -244 0
-164 -193 0
-164 -213 0
-164 -244 0
-193 -213 0
-193 -244 0
-213 -244 0
-21 -81 0
-21 -194 0
-21 -214 0
-21 -245 0
-81 -194 0
-81 -214 0
-81 -245 0
-194 -214 0
-194 -245 0
-214 -245 0
-22 -54 0
-22 -82 0
-22 -195 0
-22 -215 0
-54 -82 0
-54 -195 0
-54 -215 0
-82 -195 0
-82 -215 0
-195 -215 0
-165 -216 0
-165 -246 0
-216 -246 0
-55 -83 0
-55 -166 0
-55 -247 0
-83 -166 0
-83 -247 0
-166 -247 0
-167 -196 0
-167 -217 0
-196 -217 0
-23 -56 0
-23 -110 0
-56 -110 0
-24 -197 0
-24 -218 0
-197 -218 0
-25 -57 0
-25 -168 0
-25 -198 0
-57 -168 0
-57 -198 0
-168 -198 0
-26 -111 0
-26 -169 0
-111 -169 0
-58 -112 0
-58 -170 0
-112 -170 0
-27 -59 0
-27 -113 0
-27 -171 0
-27 -199 0
-27 -219 0
-59 -113 0
-59 -171 0
-59 -199 0
-59 -219 0
-113 -171 0
-113 -199 0
-113 -219 0
-171 -199 0
-171 -219 0
-199 -219 0
-114 -140 0
-114 -248 0
-140 -248 0
-28 -60 0
-28 -84 0
-28 -115 0
-60 -84 0
-60 -115 0
-84 -115 0
-29 -61 0
-29 -85 0
-29 -249 0
-61 -85 0
-61 -249 0
-85 -249 0
-30 -62 0
-30 -250 0
-62 -250 0
-63 -86 0
-63 -116 0
-63 -141 0
-86 -116 0
-86 -141 0
-116 -141 0
-31 -64 0
-31 -117 0
-31 -142 0
-64 -117 0
-64 -142 0
-117 -142 0
-32 -65 0
-32 -87 0
-32 -118 0
-32 -143 0
-65 -87 0
-65 -118 0
-65 -143 0
-87 -118 0
-87 -143 0
-118 -143 0
-119 -144 0
-119 -172 0
-119 -220 0
-119 -251 0
-144 -172 0
-144 -220 0
-144 -251 0
-172 -220 0
-172 -251 0
-220 -251 0
-33 -88 0
-33 -221 0
-33 -252 0
-88 -221 0
-88 -252 0
-221 -252 0
-34 -66 0
-34 -89 0
-34 -120 0
-34 -173 0
-66 -89 0
-66 -120 0
-66 -173 0
-89 -120 0
-89 -173 0
-120 -173 0
-35 -67 0
-35 -90 0
-35 -174 0
-35 -253 0
-67 -90 0
-67 -174 0
-67 -253 0
-90 -174 0
-90 -253 0
-174 -253 0
-36 -91 0
-36 -121 0
-36 -145 0
-36 -175 0
-91 -121 0
-91 -145 0
-91 -175 0
-121 -145 0
-121 -175 0
-145 -175 0
-37 -68 0
-37 -222 0
-37 -254 0
-68 -222 0
-68 -254 0
-222 -254 0
-38 -69 0
-38 -122 0
-38 -146 0
-38 -176 0
-38 -223 0
-69 -122 0
-69 -146 0
-69 -176 0
-69 -223 0
-122 -146 0
-122 -176 0
-122 -223 0
-146 -176 0
-146 -223 0
-176 -223 0
1 39 44 70 0
2 5 40 45 0
3 6 41 46 71 74 0
7 42 72 75 0
4 8 73 76 0
9 43 0
14 19 47 52 80 0
10 15 20 48 53 0
11 16 21 77 81 0
12 22 54 78 82 0
17 49 0
13 18 50 0
51 55 79 83 0
23 32 56 65 87 0
24 33 88 0
28 34 60 66 84 89 0
25 29 35 57 61 67 85 90 0
26 36 91 0
30 37 62 68 0
58 63 86 0
27 31 38 59 64 69 0
92 123 128 0
93 98 124 129 133 147 152 156 0
94 125 130 0
95 99 148 153 157 0
96 100 126 131 134 149 154 158 0
150 159 0
132 155 0
97 101 127 135 151 160 0
102 106 136 161 164 0
103 107 137 0
108 162 165 0
104 109 138 163 166 0
105 139 167 0
110 118 143 0
114 119 140 144 172 0
115 120 173 0
168 174 0
111 121 145 169 175 0
112 116 141 170 0
113 117 122 142 146 171 176 0
177 182 200 205 224 229 0
178 183 201 206 225 0
179 184 202 207 0
180 226 230 0
203 208 227 231 0
181 204 228 232 0
237 243 0
185 190 193 209 213 233 238 244 0
186 191 194 210 214 234 239 245 0
187 195 215 0
211 216 240 246 0
188 192 212 235 241 0
236 242 247 0
189 196 217 0
220 248 251 0
197 218 221 252 0
198 249 253 0
222 250 254 0
199 219 223 0
-1 -39 0
-1 -44 0
-1 -70 0
-39 -44 0
-39 -70 0
-44 -70 0
-2 -5 0
-2 -40 0
-2 -45 0
-5 -40 0
-5 -45 0
-40 -45 0
-3 -6 0
-3 -41 0
-3 -46 0
-3 -71 0
-3 -74 0
-6 -41 0
-6 -46 0
-6 -71 0
-6 -74 0
-41 -46 0
-41 -71 0
-41 -74 0
-46 -71 0
-46 -74 0
-71 -74 0
-7 -42 0
-7 -72 0
-7 -75 0
-42 -72 0
-42 -75 0
-72 -75 0
-4 -8 0
-4 -73 0
-4 -76 0
-8 -73 0
-8 -76 0
-73 -76 0
-9 -43 0
-14 -19 0
-14 -47 0
-14 -52 0
-14 -80 0
-19 -47 0
-19 -52 0
-19 -80 0
-47 -52 0
-47 -80 0
-52 -80 0
-10 -15 0
-10 -20 0
-10 -48 0
-10 -53 0
-15 -20 0
-15 -48 0
-15 -53 0
-20 -48 0
-20 -53 0
-48 -53 0
-11 -16 0
-11 -21 0
-11 -77 0
-11 -81 0
-16 -21 0
-16 -77 0
-16 -81 0
-21 -77 0
-21 -81 0
-77 -81 0
-12 -22 0
-12 -54 0
-12 -78 0
-12 -82 0
-22 -54 0
-22 -78 0
-22 -82 0
-54 -78 0
-54 -82 0
-78 -82 0
-17 -49 0
-13 -18 0
-13 -50 0
-18 -50 0
-51 -55 0
-51 -79 0
-51 -83 0
-55 -79 0
-55 -83 0
-79 -83 0
-23 -32 0
-23 -56 0
-23 -65 0
-23 -87 0
-32 -56 0
-32 -65 0
-32 -87 0
-56 -65 0
-56 -87 0
-65 -87 0
-24 -33 0
-24 -88 0
-33 -88 0
-28 -34 0
-28 -60 0
-28 -66 0
-28 -84 0
-28 -89 0
-34 -60 0
-34 -66 0
-34 -84 0
-34 -89 0
-60 -66 0
-60 -84 0
-60 -89 0
-66 -84 0
-66 -89 0
-84 -89 0
-25 -29 0
-25 -35 0
-25 -57 0
-25 -61 0
-25 -67 0
-25 -85 0
-25 -90 0
-29 -35 0
-29 -57 0
-29 -61 0
-29 -67 0
-29 -85 0
-29 -90 0
-35 -57 0
-35 -61 0
-35 -67 0
-35 -85 0
-35 -90 0
-57 -61 0
-57 -67 0
-57 -85 0
-57 -90 0
-61 -67 0
-61 -85 0
-61 -90 0
-67 -85 0
-67 -90 0
-85 -90 0
-26 -36 0
-26 -91 0
-36 -91 0
-30 -37 0
-30 -62 0
-30 -68 0
-37 -62 0
-37 -68 0
-62 -68 0
-58 -63 0
-58 -86 0
-63 -86 0
-27 -31 0
-27 -38 0
-27 -59 0
-27 -64 0
-27 -69 0
-31 -38 0
-31 -59 0
-31 -64 0
-31 -69 0
-38 -59 0
-38 -64 0
-38 -69 0
-59 -64 0
-59 -69 0
-64 -69 0
-92 -123 0
-92 -128 0
-123 -128 0
-93 -98 0
-93 -124 0
-93 -129 0
-93 -133 0
-93 -147 0
-93 -152 0
-93 -156 0
-98 -124 0
-98 -129 0
-98 -133 0
-98 -147 0
-98 -152 0
-98 -156 0
-124 -129 0
-124 -133 0
-124 -147 0
-124 -152 0
-124 -156 0
-129 -133 0
-129 -147 0
-129 -152 0
-129 -156 0
-133 -147 0
-133 -152 0
-133 -156 0
-147 -152 0
-147 -156 0
-152 -156 0
-94 -125 0
-94 -130 0
-125 -130 0
-95 -99 0
-95 -148 0
-95 -153 0
-95 -157 0
-99 -148 0
-99 -153 0
-99 -157 0
-148 -153 0
-148 -157 0
-153 -157 0
-96 -100 0
-96 -126 0
-96 -131 0
-96 -134 0
-96 -149 0
-96 -154 0
-96 -158 0
-100 -126 0
-100 -131 0
-100 -134 0
-100 -149 0
-100 -154 0
-100 -158 0
-126 -131 0
-126 -134 0
-126 -149 0
-126 -154 0
-126 -158 0
-131 -134 0
-131 -149 0
-131 -154 0
-131 -158 0
-134 -149 0
-134 -154 0
-134 -158 0
-149 -154 0
-149 -158 0
-154 -158 0
-150 -159 0
-132 -155 0
-97 -101 0
-97 -127 0
-97 -135 0
-97 -151 0
-97 -160 0
-101 -127 0
-101 -135 0
-101 -151 0
-101 -160 0
-127 -135 0
-127 -151 0
-127 -160 0
-135 -151 0
-135 -160 0
-151 -160 0
-102 -106 0
-102 -136 0
-102 -161 0
-102 -164 0
-106 -136 0
-106 -161 0
-106 -164 0
-136 -161 0
-136 -164 0
-161 -164 0
-103 -107 0
-103 -137 0
-107 -137 0
-108 -162 0
-108 -165 0
-162 -165 0
-104 -109 0
-104 -138 0
-104 -163 0
-104 -166 0
-109 -138 0
-109 -163 0
-109 -166 0
-138 -163 0
-138 -166 0
-163 -166 0
-105 -139 0
-105 -167 0
-139 -167 0
-110 -118 0
-110 -143 0
-118 -143 0
-114 -119 0
-114 -140 0
-114 -144 0
-114 -172 0
-119 -140 0
-119 -144 0
-119 -172 0
-140 -144 0
-140 -172 0
-144 -172 0
-115 -120 0
-115 -173 0
-120 -173 0
-168 -174 0
-111 -121 0
-111 -145 0
-111 -169 0
-111 -175 0
-121 -145 0
-121 -169 0
-121 -175 0
-145 -169 0
-145 -175 0
-169 -175 0
-112 -116 0
-112 -141 0
-112 -170 0
-116 -141 0
-116 -170 0
-141 -170 0
-113 -117 0
-113 -122 0
-113 -142 0
-113 -146 0
-113 -171 0
-113 -176 0
-117 -122 0
-117 -142 0
-117 -146 0
-117 -171 0
-117 -176 0
-122 -142 0
-122 -146 0
-122 -171 0
-122 -176 0
-142 -146 0
-142 -171 0
-142 -176 0
-146 -171 0
-146 -176 0
-171 -176 0
-177 -182 0
-177 -200 0
-177 -205 0
-177 -224 0
-177 -229 0
-182 -200 0
-182 -205 0
-182 -224 0
-182 -229 0
-200 -205 0
-200 -224 0
-200 -229 0
-205 -224 0
-205 -229 0
-224 -229 0
-178 -183 0
-178 -201 0
-178 -206 0
-178 -225 0
-183 -201 0
-183 -206 0
-183 -225 0
-201 -206 0
-201 -225 0
-206 -225 0
-179 -184 0
-179 -202 0
-179 -207 0
-184 -202 0
-184 -207 0
-202 -207 0
-180 -226 0
-180 -230 0
-226 -230 0
-203 -208 0
-203 -227 0
-203 -231 0
-208 -227 0
-208 -231 0
-227 -231 0
-181 -204 0
-181 -228 0
-181 -232 0
-204 -228 0
-204 -232 0
-228 -232 0
-237 -243 0
-185 -190 0
-185 -193 0
-185 -209 0
-185 -213 0
-185 -233 0
-185 -238 0
-185 -244 0
-190 -193 0
-190 -209 0
-190 -213 0
-190 -233 0
-190 -238 0
-190 -244 0
-193 -209 0
-193 -213 0
-193 -233 0
-193 -238 0
-193 -244 0
-209 -213 0
-209 -233 0
-209 -238 0
-209 -244 0
-213 -233 0
-213 -238 0
-213 -244 0
-233 -238 0
-233 -244 0
-238 -244 0
-186 -191 0
-186 -194 0
-186 -210 0
-186 -214 0
-186 -234 0
-186 -239 0
-186 -245 0
-191 -194 0
-191 -210 0
-191 -214 0
-191 -234 0
-191 -239 0
-191 -245 0
-194 -210 0
-194 -214 0
-194 -234 0
-194 -239 0
-194 -245 0
-210 -214 0
-210 -234 0
-210 -239 0
-210 -245 0
-214 -234 0
-214 -239 0
-214 -245 0
-234 -239 0
-234 -245 0
-239 -245 0
-187 -195 0
-187 -215 0
-195 -215 0
-211 -216 0
-211 -240 0
-211 -246 0
-216 -240 0
-216 -246 0
-240 -246 0
-188 -192 0
-188 -212 0
-188 -235 0
-188 -241 0
-192 -212 0
-192 -235 0
-192 -241 0
-212 -235 0
-212 -241 0
-235 -241 0
-236 -242 0
-236 -247 0
-242 -247 0
-189 -196 0
-189 -217 0
-196 -217 0
-220 -248 0
-220 -251 0
-248 -251 0
-197 -218 0
-197 -221 0
-197 -252 0
-218 -221 0
-218 -252 0
-221 -252 0
-198 -249 0
-198 -253 0
-249 -253 0
-222 -250 0
-222 -254 0
-250 -254 0
-199 -219 0
-199 -223 0
-219 -223 0
